c colouring generated by benchmark framework
p edge 2070 4049
v 1 1
v 2 0
v 3 1
v 4 0
v 5 1
v 6 0
v 7 1
v 8 0
v 9 1
v 10 0
v 11 1
v 12 0
v 13 1
v 14 0
v 15 1
v 16 0
v 17 1
v 18 0
v 19 1
v 20 0
v 21 1
v 22 0
v 23 1
v 24 0
v 25 1
v 26 0
v 27 1
v 28 0
v 29 1
v 30 0
v 31 1
v 32 0
v 33 1
v 34 0
v 35 1
v 36 0
v 37 1
v 38 0
v 39 1
v 40 0
v 41 1
v 42 0
v 43 1
v 44 0
v 45 1
v 46 0
v 47 0
v 48 1
v 49 0
v 50 1
v 51 0
v 52 1
v 53 0
v 54 1
v 55 0
v 56 1
v 57 0
v 58 1
v 59 0
v 60 1
v 61 0
v 62 1
v 63 0
v 64 1
v 65 0
v 66 1
v 67 0
v 68 1
v 69 0
v 70 1
v 71 0
v 72 1
v 73 0
v 74 1
v 75 0
v 76 1
v 77 0
v 78 1
v 79 0
v 80 1
v 81 0
v 82 1
v 83 0
v 84 1
v 85 0
v 86 1
v 87 0
v 88 1
v 89 0
v 90 1
v 91 0
v 92 1
v 93 1
v 94 0
v 95 1
v 96 0
v 97 1
v 98 0
v 99 1
v 100 0
v 101 1
v 102 0
v 103 1
v 104 0
v 105 1
v 106 0
v 107 1
v 108 0
v 109 1
v 110 0
v 111 1
v 112 0
v 113 1
v 114 0
v 115 1
v 116 0
v 117 1
v 118 0
v 119 1
v 120 0
v 121 1
v 122 0
v 123 1
v 124 0
v 125 1
v 126 0
v 127 1
v 128 0
v 129 1
v 130 0
v 131 1
v 132 0
v 133 1
v 134 0
v 135 1
v 136 0
v 137 1
v 138 0
v 139 0
v 140 1
v 141 0
v 142 1
v 143 0
v 144 1
v 145 0
v 146 1
v 147 0
v 148 1
v 149 0
v 150 1
v 151 0
v 152 1
v 153 0
v 154 1
v 155 0
v 156 1
v 157 0
v 158 1
v 159 0
v 160 1
v 161 0
v 162 1
v 163 0
v 164 1
v 165 0
v 166 1
v 167 0
v 168 1
v 169 0
v 170 1
v 171 0
v 172 1
v 173 0
v 174 1
v 175 0
v 176 1
v 177 0
v 178 1
v 179 0
v 180 1
v 181 0
v 182 1
v 183 0
v 184 1
v 185 1
v 186 0
v 187 1
v 188 0
v 189 1
v 190 0
v 191 1
v 192 0
v 193 1
v 194 0
v 195 1
v 196 0
v 197 1
v 198 0
v 199 1
v 200 0
v 201 1
v 202 0
v 203 1
v 204 0
v 205 1
v 206 0
v 207 1
v 208 0
v 209 1
v 210 0
v 211 1
v 212 0
v 213 1
v 214 0
v 215 1
v 216 0
v 217 1
v 218 0
v 219 1
v 220 0
v 221 1
v 222 0
v 223 1
v 224 0
v 225 1
v 226 0
v 227 1
v 228 0
v 229 1
v 230 0
v 231 0
v 232 1
v 233 0
v 234 1
v 235 0
v 236 1
v 237 0
v 238 1
v 239 0
v 240 1
v 241 0
v 242 1
v 243 0
v 244 1
v 245 0
v 246 1
v 247 0
v 248 1
v 249 0
v 250 1
v 251 0
v 252 1
v 253 0
v 254 1
v 255 0
v 256 1
v 257 0
v 258 1
v 259 0
v 260 1
v 261 0
v 262 1
v 263 0
v 264 1
v 265 0
v 266 1
v 267 0
v 268 1
v 269 0
v 270 1
v 271 0
v 272 1
v 273 0
v 274 1
v 275 0
v 276 1
v 277 1
v 278 0
v 279 1
v 280 0
v 281 1
v 282 0
v 283 1
v 284 0
v 285 1
v 286 0
v 287 1
v 288 0
v 289 1
v 290 0
v 291 1
v 292 0
v 293 1
v 294 0
v 295 1
v 296 0
v 297 1
v 298 0
v 299 1
v 300 0
v 301 1
v 302 0
v 303 1
v 304 0
v 305 1
v 306 0
v 307 1
v 308 0
v 309 1
v 310 0
v 311 1
v 312 0
v 313 1
v 314 0
v 315 1
v 316 0
v 317 1
v 318 0
v 319 1
v 320 0
v 321 1
v 322 0
v 323 0
v 324 1
v 325 0
v 326 1
v 327 0
v 328 1
v 329 0
v 330 1
v 331 0
v 332 1
v 333 0
v 334 1
v 335 0
v 336 1
v 337 0
v 338 1
v 339 0
v 340 1
v 341 0
v 342 1
v 343 0
v 344 1
v 345 0
v 346 1
v 347 0
v 348 1
v 349 0
v 350 1
v 351 0
v 352 1
v 353 0
v 354 1
v 355 0
v 356 1
v 357 0
v 358 1
v 359 0
v 360 1
v 361 0
v 362 1
v 363 0
v 364 1
v 365 0
v 366 1
v 367 0
v 368 1
v 369 1
v 370 0
v 371 1
v 372 0
v 373 1
v 374 0
v 375 1
v 376 0
v 377 1
v 378 0
v 379 1
v 380 0
v 381 1
v 382 0
v 383 1
v 384 0
v 385 1
v 386 0
v 387 1
v 388 0
v 389 1
v 390 0
v 391 1
v 392 0
v 393 1
v 394 0
v 395 1
v 396 0
v 397 1
v 398 0
v 399 1
v 400 0
v 401 1
v 402 0
v 403 1
v 404 0
v 405 1
v 406 0
v 407 1
v 408 0
v 409 1
v 410 0
v 411 1
v 412 0
v 413 1
v 414 0
v 415 0
v 416 1
v 417 0
v 418 1
v 419 0
v 420 1
v 421 0
v 422 1
v 423 0
v 424 1
v 425 0
v 426 1
v 427 0
v 428 1
v 429 0
v 430 1
v 431 0
v 432 1
v 433 0
v 434 1
v 435 0
v 436 1
v 437 0
v 438 1
v 439 0
v 440 1
v 441 0
v 442 1
v 443 0
v 444 1
v 445 0
v 446 1
v 447 0
v 448 1
v 449 0
v 450 1
v 451 0
v 452 1
v 453 0
v 454 1
v 455 0
v 456 1
v 457 0
v 458 1
v 459 0
v 460 1
v 461 1
v 462 0
v 463 1
v 464 0
v 465 1
v 466 0
v 467 1
v 468 0
v 469 1
v 470 0
v 471 1
v 472 0
v 473 1
v 474 0
v 475 1
v 476 0
v 477 1
v 478 0
v 479 1
v 480 0
v 481 1
v 482 0
v 483 1
v 484 0
v 485 1
v 486 0
v 487 1
v 488 0
v 489 1
v 490 0
v 491 1
v 492 0
v 493 1
v 494 0
v 495 1
v 496 0
v 497 1
v 498 0
v 499 1
v 500 0
v 501 1
v 502 0
v 503 1
v 504 0
v 505 1
v 506 0
v 507 0
v 508 1
v 509 0
v 510 1
v 511 0
v 512 1
v 513 0
v 514 1
v 515 0
v 516 1
v 517 0
v 518 1
v 519 0
v 520 1
v 521 0
v 522 1
v 523 0
v 524 1
v 525 0
v 526 1
v 527 0
v 528 1
v 529 0
v 530 1
v 531 0
v 532 1
v 533 0
v 534 1
v 535 0
v 536 1
v 537 0
v 538 1
v 539 0
v 540 1
v 541 0
v 542 1
v 543 0
v 544 1
v 545 0
v 546 1
v 547 0
v 548 1
v 549 0
v 550 1
v 551 0
v 552 1
v 553 1
v 554 0
v 555 1
v 556 0
v 557 1
v 558 0
v 559 1
v 560 0
v 561 1
v 562 0
v 563 1
v 564 0
v 565 1
v 566 0
v 567 1
v 568 0
v 569 1
v 570 0
v 571 1
v 572 0
v 573 1
v 574 0
v 575 1
v 576 0
v 577 1
v 578 0
v 579 1
v 580 0
v 581 1
v 582 0
v 583 1
v 584 0
v 585 1
v 586 0
v 587 1
v 588 0
v 589 1
v 590 0
v 591 1
v 592 0
v 593 1
v 594 0
v 595 1
v 596 0
v 597 1
v 598 0
v 599 0
v 600 1
v 601 0
v 602 1
v 603 0
v 604 1
v 605 0
v 606 1
v 607 0
v 608 1
v 609 0
v 610 1
v 611 0
v 612 1
v 613 0
v 614 1
v 615 0
v 616 1
v 617 0
v 618 1
v 619 0
v 620 1
v 621 0
v 622 1
v 623 0
v 624 1
v 625 0
v 626 1
v 627 0
v 628 1
v 629 0
v 630 1
v 631 0
v 632 1
v 633 0
v 634 1
v 635 0
v 636 1
v 637 0
v 638 1
v 639 0
v 640 1
v 641 0
v 642 1
v 643 0
v 644 1
v 645 1
v 646 0
v 647 1
v 648 0
v 649 1
v 650 0
v 651 1
v 652 0
v 653 1
v 654 0
v 655 1
v 656 0
v 657 1
v 658 0
v 659 1
v 660 0
v 661 1
v 662 0
v 663 1
v 664 0
v 665 1
v 666 0
v 667 1
v 668 0
v 669 1
v 670 0
v 671 1
v 672 0
v 673 1
v 674 0
v 675 1
v 676 0
v 677 1
v 678 0
v 679 1
v 680 0
v 681 1
v 682 0
v 683 1
v 684 0
v 685 1
v 686 0
v 687 1
v 688 0
v 689 1
v 690 0
v 691 0
v 692 1
v 693 0
v 694 1
v 695 0
v 696 1
v 697 0
v 698 1
v 699 0
v 700 1
v 701 0
v 702 1
v 703 0
v 704 1
v 705 0
v 706 1
v 707 0
v 708 1
v 709 0
v 710 1
v 711 0
v 712 1
v 713 0
v 714 1
v 715 0
v 716 1
v 717 0
v 718 1
v 719 0
v 720 1
v 721 0
v 722 1
v 723 0
v 724 1
v 725 0
v 726 1
v 727 0
v 728 1
v 729 0
v 730 1
v 731 0
v 732 1
v 733 0
v 734 1
v 735 0
v 736 1
v 737 1
v 738 0
v 739 1
v 740 0
v 741 1
v 742 0
v 743 1
v 744 0
v 745 1
v 746 0
v 747 1
v 748 0
v 749 1
v 750 0
v 751 1
v 752 0
v 753 1
v 754 0
v 755 1
v 756 0
v 757 1
v 758 0
v 759 1
v 760 0
v 761 1
v 762 0
v 763 1
v 764 0
v 765 1
v 766 0
v 767 1
v 768 0
v 769 1
v 770 0
v 771 1
v 772 0
v 773 1
v 774 0
v 775 1
v 776 0
v 777 1
v 778 0
v 779 1
v 780 0
v 781 1
v 782 0
v 783 0
v 784 1
v 785 0
v 786 1
v 787 0
v 788 1
v 789 0
v 790 1
v 791 0
v 792 1
v 793 0
v 794 1
v 795 0
v 796 1
v 797 0
v 798 1
v 799 0
v 800 1
v 801 0
v 802 1
v 803 0
v 804 1
v 805 0
v 806 1
v 807 0
v 808 1
v 809 0
v 810 1
v 811 0
v 812 1
v 813 0
v 814 1
v 815 0
v 816 1
v 817 0
v 818 1
v 819 0
v 820 1
v 821 0
v 822 1
v 823 0
v 824 1
v 825 0
v 826 1
v 827 0
v 828 1
v 829 1
v 830 0
v 831 1
v 832 0
v 833 1
v 834 0
v 835 1
v 836 0
v 837 1
v 838 0
v 839 1
v 840 0
v 841 1
v 842 0
v 843 1
v 844 0
v 845 1
v 846 0
v 847 1
v 848 0
v 849 1
v 850 0
v 851 1
v 852 0
v 853 1
v 854 0
v 855 1
v 856 0
v 857 1
v 858 0
v 859 1
v 860 0
v 861 1
v 862 0
v 863 1
v 864 0
v 865 1
v 866 0
v 867 1
v 868 0
v 869 1
v 870 0
v 871 1
v 872 0
v 873 1
v 874 0
v 875 0
v 876 1
v 877 0
v 878 1
v 879 0
v 880 1
v 881 0
v 882 1
v 883 0
v 884 1
v 885 0
v 886 1
v 887 0
v 888 1
v 889 0
v 890 1
v 891 0
v 892 1
v 893 0
v 894 1
v 895 0
v 896 1
v 897 0
v 898 1
v 899 0
v 900 1
v 901 0
v 902 1
v 903 0
v 904 1
v 905 0
v 906 1
v 907 0
v 908 1
v 909 0
v 910 1
v 911 0
v 912 1
v 913 0
v 914 1
v 915 0
v 916 1
v 917 0
v 918 1
v 919 0
v 920 1
v 921 1
v 922 0
v 923 1
v 924 0
v 925 1
v 926 0
v 927 1
v 928 0
v 929 1
v 930 0
v 931 1
v 932 0
v 933 1
v 934 0
v 935 1
v 936 0
v 937 1
v 938 0
v 939 1
v 940 0
v 941 1
v 942 0
v 943 1
v 944 0
v 945 1
v 946 0
v 947 1
v 948 0
v 949 1
v 950 0
v 951 1
v 952 0
v 953 1
v 954 0
v 955 1
v 956 0
v 957 1
v 958 0
v 959 1
v 960 0
v 961 1
v 962 0
v 963 1
v 964 0
v 965 1
v 966 0
v 967 0
v 968 1
v 969 0
v 970 1
v 971 0
v 972 1
v 973 0
v 974 1
v 975 0
v 976 1
v 977 0
v 978 1
v 979 0
v 980 1
v 981 0
v 982 1
v 983 0
v 984 1
v 985 0
v 986 1
v 987 0
v 988 1
v 989 0
v 990 1
v 991 0
v 992 1
v 993 0
v 994 1
v 995 0
v 996 1
v 997 0
v 998 1
v 999 0
v 1000 1
v 1001 0
v 1002 1
v 1003 0
v 1004 1
v 1005 0
v 1006 1
v 1007 0
v 1008 1
v 1009 0
v 1010 1
v 1011 0
v 1012 1
v 1013 1
v 1014 0
v 1015 1
v 1016 0
v 1017 1
v 1018 0
v 1019 1
v 1020 0
v 1021 1
v 1022 0
v 1023 1
v 1024 0
v 1025 1
v 1026 0
v 1027 1
v 1028 0
v 1029 1
v 1030 0
v 1031 1
v 1032 0
v 1033 1
v 1034 0
v 1035 1
v 1036 0
v 1037 1
v 1038 0
v 1039 1
v 1040 0
v 1041 1
v 1042 0
v 1043 1
v 1044 0
v 1045 1
v 1046 0
v 1047 1
v 1048 0
v 1049 1
v 1050 0
v 1051 1
v 1052 0
v 1053 1
v 1054 0
v 1055 1
v 1056 0
v 1057 1
v 1058 0
v 1059 0
v 1060 1
v 1061 0
v 1062 1
v 1063 0
v 1064 1
v 1065 0
v 1066 1
v 1067 0
v 1068 1
v 1069 0
v 1070 1
v 1071 0
v 1072 1
v 1073 0
v 1074 1
v 1075 0
v 1076 1
v 1077 0
v 1078 1
v 1079 0
v 1080 1
v 1081 0
v 1082 1
v 1083 0
v 1084 1
v 1085 0
v 1086 1
v 1087 0
v 1088 1
v 1089 0
v 1090 1
v 1091 0
v 1092 1
v 1093 0
v 1094 1
v 1095 0
v 1096 1
v 1097 0
v 1098 1
v 1099 0
v 1100 1
v 1101 0
v 1102 1
v 1103 0
v 1104 1
v 1105 1
v 1106 0
v 1107 1
v 1108 0
v 1109 1
v 1110 0
v 1111 1
v 1112 0
v 1113 1
v 1114 0
v 1115 1
v 1116 0
v 1117 1
v 1118 0
v 1119 1
v 1120 0
v 1121 1
v 1122 0
v 1123 1
v 1124 0
v 1125 1
v 1126 0
v 1127 1
v 1128 0
v 1129 1
v 1130 0
v 1131 1
v 1132 0
v 1133 1
v 1134 0
v 1135 1
v 1136 0
v 1137 1
v 1138 0
v 1139 1
v 1140 0
v 1141 1
v 1142 0
v 1143 1
v 1144 0
v 1145 1
v 1146 0
v 1147 1
v 1148 0
v 1149 1
v 1150 0
v 1151 0
v 1152 1
v 1153 0
v 1154 1
v 1155 0
v 1156 1
v 1157 0
v 1158 1
v 1159 0
v 1160 1
v 1161 0
v 1162 1
v 1163 0
v 1164 1
v 1165 0
v 1166 1
v 1167 0
v 1168 1
v 1169 0
v 1170 1
v 1171 0
v 1172 1
v 1173 0
v 1174 1
v 1175 0
v 1176 1
v 1177 0
v 1178 1
v 1179 0
v 1180 1
v 1181 0
v 1182 1
v 1183 0
v 1184 1
v 1185 0
v 1186 1
v 1187 0
v 1188 1
v 1189 0
v 1190 1
v 1191 0
v 1192 1
v 1193 0
v 1194 1
v 1195 0
v 1196 1
v 1197 1
v 1198 0
v 1199 1
v 1200 0
v 1201 1
v 1202 0
v 1203 1
v 1204 0
v 1205 1
v 1206 0
v 1207 1
v 1208 0
v 1209 1
v 1210 0
v 1211 1
v 1212 0
v 1213 1
v 1214 0
v 1215 1
v 1216 0
v 1217 1
v 1218 0
v 1219 1
v 1220 0
v 1221 1
v 1222 0
v 1223 1
v 1224 0
v 1225 1
v 1226 0
v 1227 1
v 1228 0
v 1229 1
v 1230 0
v 1231 1
v 1232 0
v 1233 1
v 1234 0
v 1235 1
v 1236 0
v 1237 1
v 1238 0
v 1239 1
v 1240 0
v 1241 1
v 1242 0
v 1243 0
v 1244 1
v 1245 0
v 1246 1
v 1247 0
v 1248 1
v 1249 0
v 1250 1
v 1251 0
v 1252 1
v 1253 0
v 1254 1
v 1255 0
v 1256 1
v 1257 0
v 1258 1
v 1259 0
v 1260 1
v 1261 0
v 1262 1
v 1263 0
v 1264 1
v 1265 0
v 1266 1
v 1267 0
v 1268 1
v 1269 0
v 1270 1
v 1271 0
v 1272 1
v 1273 0
v 1274 1
v 1275 0
v 1276 1
v 1277 0
v 1278 1
v 1279 0
v 1280 1
v 1281 0
v 1282 1
v 1283 0
v 1284 1
v 1285 0
v 1286 1
v 1287 0
v 1288 1
v 1289 1
v 1290 0
v 1291 1
v 1292 0
v 1293 1
v 1294 0
v 1295 1
v 1296 0
v 1297 1
v 1298 0
v 1299 1
v 1300 0
v 1301 1
v 1302 0
v 1303 1
v 1304 0
v 1305 1
v 1306 0
v 1307 1
v 1308 0
v 1309 1
v 1310 0
v 1311 1
v 1312 0
v 1313 1
v 1314 0
v 1315 1
v 1316 0
v 1317 1
v 1318 0
v 1319 1
v 1320 0
v 1321 1
v 1322 0
v 1323 1
v 1324 0
v 1325 1
v 1326 0
v 1327 1
v 1328 0
v 1329 1
v 1330 0
v 1331 1
v 1332 0
v 1333 1
v 1334 0
v 1335 0
v 1336 1
v 1337 0
v 1338 1
v 1339 0
v 1340 1
v 1341 0
v 1342 1
v 1343 0
v 1344 1
v 1345 0
v 1346 1
v 1347 0
v 1348 1
v 1349 0
v 1350 1
v 1351 0
v 1352 1
v 1353 0
v 1354 1
v 1355 0
v 1356 1
v 1357 0
v 1358 1
v 1359 0
v 1360 1
v 1361 0
v 1362 1
v 1363 0
v 1364 1
v 1365 0
v 1366 1
v 1367 0
v 1368 1
v 1369 0
v 1370 1
v 1371 0
v 1372 1
v 1373 0
v 1374 1
v 1375 0
v 1376 1
v 1377 0
v 1378 1
v 1379 0
v 1380 1
v 1381 1
v 1382 0
v 1383 1
v 1384 0
v 1385 1
v 1386 0
v 1387 1
v 1388 0
v 1389 1
v 1390 0
v 1391 1
v 1392 0
v 1393 1
v 1394 0
v 1395 1
v 1396 0
v 1397 1
v 1398 0
v 1399 1
v 1400 0
v 1401 1
v 1402 0
v 1403 1
v 1404 0
v 1405 1
v 1406 0
v 1407 1
v 1408 0
v 1409 1
v 1410 0
v 1411 1
v 1412 0
v 1413 1
v 1414 0
v 1415 1
v 1416 0
v 1417 1
v 1418 0
v 1419 1
v 1420 0
v 1421 1
v 1422 0
v 1423 1
v 1424 0
v 1425 1
v 1426 0
v 1427 0
v 1428 1
v 1429 0
v 1430 1
v 1431 0
v 1432 1
v 1433 0
v 1434 1
v 1435 0
v 1436 1
v 1437 0
v 1438 1
v 1439 0
v 1440 1
v 1441 0
v 1442 1
v 1443 0
v 1444 1
v 1445 0
v 1446 1
v 1447 0
v 1448 1
v 1449 0
v 1450 1
v 1451 0
v 1452 1
v 1453 0
v 1454 1
v 1455 0
v 1456 1
v 1457 0
v 1458 1
v 1459 0
v 1460 1
v 1461 0
v 1462 1
v 1463 0
v 1464 1
v 1465 0
v 1466 1
v 1467 0
v 1468 1
v 1469 0
v 1470 1
v 1471 0
v 1472 1
v 1473 1
v 1474 0
v 1475 1
v 1476 0
v 1477 1
v 1478 0
v 1479 1
v 1480 0
v 1481 1
v 1482 0
v 1483 1
v 1484 0
v 1485 1
v 1486 0
v 1487 1
v 1488 0
v 1489 1
v 1490 0
v 1491 1
v 1492 0
v 1493 1
v 1494 0
v 1495 1
v 1496 0
v 1497 1
v 1498 0
v 1499 1
v 1500 0
v 1501 1
v 1502 0
v 1503 1
v 1504 0
v 1505 1
v 1506 0
v 1507 1
v 1508 0
v 1509 1
v 1510 0
v 1511 1
v 1512 0
v 1513 1
v 1514 0
v 1515 1
v 1516 0
v 1517 1
v 1518 0
v 1519 0
v 1520 1
v 1521 0
v 1522 1
v 1523 0
v 1524 1
v 1525 0
v 1526 1
v 1527 0
v 1528 1
v 1529 0
v 1530 1
v 1531 0
v 1532 1
v 1533 0
v 1534 1
v 1535 0
v 1536 1
v 1537 0
v 1538 1
v 1539 0
v 1540 1
v 1541 0
v 1542 1
v 1543 0
v 1544 1
v 1545 0
v 1546 1
v 1547 0
v 1548 1
v 1549 0
v 1550 1
v 1551 0
v 1552 1
v 1553 0
v 1554 1
v 1555 0
v 1556 1
v 1557 0
v 1558 1
v 1559 0
v 1560 1
v 1561 0
v 1562 1
v 1563 0
v 1564 1
v 1565 1
v 1566 0
v 1567 1
v 1568 0
v 1569 1
v 1570 0
v 1571 1
v 1572 0
v 1573 1
v 1574 0
v 1575 1
v 1576 0
v 1577 1
v 1578 0
v 1579 1
v 1580 0
v 1581 1
v 1582 0
v 1583 1
v 1584 0
v 1585 1
v 1586 0
v 1587 1
v 1588 0
v 1589 1
v 1590 0
v 1591 1
v 1592 0
v 1593 1
v 1594 0
v 1595 1
v 1596 0
v 1597 1
v 1598 0
v 1599 1
v 1600 0
v 1601 1
v 1602 0
v 1603 1
v 1604 0
v 1605 1
v 1606 0
v 1607 1
v 1608 0
v 1609 1
v 1610 0
v 1611 0
v 1612 1
v 1613 0
v 1614 1
v 1615 0
v 1616 1
v 1617 0
v 1618 1
v 1619 0
v 1620 1
v 1621 0
v 1622 1
v 1623 0
v 1624 1
v 1625 0
v 1626 1
v 1627 0
v 1628 1
v 1629 0
v 1630 1
v 1631 0
v 1632 1
v 1633 0
v 1634 1
v 1635 0
v 1636 1
v 1637 0
v 1638 1
v 1639 0
v 1640 1
v 1641 0
v 1642 1
v 1643 0
v 1644 1
v 1645 0
v 1646 1
v 1647 0
v 1648 1
v 1649 0
v 1650 1
v 1651 0
v 1652 1
v 1653 0
v 1654 1
v 1655 0
v 1656 1
v 1657 1
v 1658 0
v 1659 1
v 1660 0
v 1661 1
v 1662 0
v 1663 1
v 1664 0
v 1665 1
v 1666 0
v 1667 1
v 1668 0
v 1669 1
v 1670 0
v 1671 1
v 1672 0
v 1673 1
v 1674 0
v 1675 1
v 1676 0
v 1677 1
v 1678 0
v 1679 1
v 1680 0
v 1681 1
v 1682 0
v 1683 1
v 1684 0
v 1685 1
v 1686 0
v 1687 1
v 1688 0
v 1689 1
v 1690 0
v 1691 1
v 1692 0
v 1693 1
v 1694 0
v 1695 1
v 1696 0
v 1697 1
v 1698 0
v 1699 1
v 1700 0
v 1701 1
v 1702 0
v 1703 0
v 1704 1
v 1705 0
v 1706 1
v 1707 0
v 1708 1
v 1709 0
v 1710 1
v 1711 0
v 1712 1
v 1713 0
v 1714 1
v 1715 0
v 1716 1
v 1717 0
v 1718 1
v 1719 0
v 1720 1
v 1721 0
v 1722 1
v 1723 0
v 1724 1
v 1725 0
v 1726 1
v 1727 0
v 1728 1
v 1729 0
v 1730 1
v 1731 0
v 1732 1
v 1733 0
v 1734 1
v 1735 0
v 1736 1
v 1737 0
v 1738 1
v 1739 0
v 1740 1
v 1741 0
v 1742 1
v 1743 0
v 1744 1
v 1745 0
v 1746 1
v 1747 0
v 1748 1
v 1749 1
v 1750 0
v 1751 1
v 1752 0
v 1753 1
v 1754 0
v 1755 1
v 1756 0
v 1757 1
v 1758 0
v 1759 1
v 1760 0
v 1761 1
v 1762 0
v 1763 1
v 1764 0
v 1765 1
v 1766 0
v 1767 1
v 1768 0
v 1769 1
v 1770 0
v 1771 1
v 1772 0
v 1773 1
v 1774 0
v 1775 1
v 1776 0
v 1777 1
v 1778 0
v 1779 1
v 1780 0
v 1781 1
v 1782 0
v 1783 1
v 1784 0
v 1785 1
v 1786 0
v 1787 1
v 1788 0
v 1789 1
v 1790 0
v 1791 1
v 1792 0
v 1793 1
v 1794 0
v 1795 0
v 1796 1
v 1797 0
v 1798 1
v 1799 0
v 1800 1
v 1801 0
v 1802 1
v 1803 0
v 1804 1
v 1805 0
v 1806 1
v 1807 0
v 1808 1
v 1809 0
v 1810 1
v 1811 0
v 1812 1
v 1813 0
v 1814 1
v 1815 0
v 1816 1
v 1817 0
v 1818 1
v 1819 0
v 1820 1
v 1821 0
v 1822 1
v 1823 0
v 1824 1
v 1825 0
v 1826 1
v 1827 0
v 1828 1
v 1829 0
v 1830 1
v 1831 0
v 1832 1
v 1833 0
v 1834 1
v 1835 0
v 1836 1
v 1837 0
v 1838 1
v 1839 0
v 1840 1
v 1841 1
v 1842 0
v 1843 1
v 1844 0
v 1845 1
v 1846 0
v 1847 1
v 1848 0
v 1849 1
v 1850 0
v 1851 1
v 1852 0
v 1853 1
v 1854 0
v 1855 1
v 1856 0
v 1857 1
v 1858 0
v 1859 1
v 1860 0
v 1861 1
v 1862 0
v 1863 1
v 1864 0
v 1865 1
v 1866 0
v 1867 1
v 1868 0
v 1869 1
v 1870 0
v 1871 1
v 1872 0
v 1873 1
v 1874 0
v 1875 1
v 1876 0
v 1877 1
v 1878 0
v 1879 1
v 1880 0
v 1881 1
v 1882 0
v 1883 1
v 1884 0
v 1885 1
v 1886 0
v 1887 0
v 1888 1
v 1889 0
v 1890 1
v 1891 0
v 1892 1
v 1893 0
v 1894 1
v 1895 0
v 1896 1
v 1897 0
v 1898 1
v 1899 0
v 1900 1
v 1901 0
v 1902 1
v 1903 0
v 1904 1
v 1905 0
v 1906 1
v 1907 0
v 1908 1
v 1909 0
v 1910 1
v 1911 0
v 1912 1
v 1913 0
v 1914 1
v 1915 0
v 1916 1
v 1917 0
v 1918 1
v 1919 0
v 1920 1
v 1921 0
v 1922 1
v 1923 0
v 1924 1
v 1925 0
v 1926 1
v 1927 0
v 1928 1
v 1929 0
v 1930 1
v 1931 0
v 1932 1
v 1933 1
v 1934 0
v 1935 1
v 1936 0
v 1937 1
v 1938 0
v 1939 1
v 1940 0
v 1941 1
v 1942 0
v 1943 1
v 1944 0
v 1945 1
v 1946 0
v 1947 1
v 1948 0
v 1949 1
v 1950 0
v 1951 1
v 1952 0
v 1953 1
v 1954 0
v 1955 1
v 1956 0
v 1957 1
v 1958 0
v 1959 1
v 1960 0
v 1961 1
v 1962 0
v 1963 1
v 1964 0
v 1965 1
v 1966 0
v 1967 1
v 1968 0
v 1969 1
v 1970 0
v 1971 1
v 1972 0
v 1973 1
v 1974 0
v 1975 1
v 1976 0
v 1977 1
v 1978 0
v 1979 0
v 1980 1
v 1981 0
v 1982 1
v 1983 0
v 1984 1
v 1985 0
v 1986 1
v 1987 0
v 1988 1
v 1989 0
v 1990 1
v 1991 0
v 1992 1
v 1993 0
v 1994 1
v 1995 0
v 1996 1
v 1997 0
v 1998 1
v 1999 0
v 2000 1
v 2001 0
v 2002 1
v 2003 0
v 2004 1
v 2005 0
v 2006 1
v 2007 0
v 2008 1
v 2009 0
v 2010 1
v 2011 0
v 2012 1
v 2013 0
v 2014 1
v 2015 0
v 2016 1
v 2017 0
v 2018 1
v 2019 0
v 2020 1
v 2021 0
v 2022 1
v 2023 0
v 2024 1
v 2025 1
v 2026 0
v 2027 1
v 2028 0
v 2029 1
v 2030 0
v 2031 1
v 2032 0
v 2033 1
v 2034 0
v 2035 1
v 2036 0
v 2037 1
v 2038 0
v 2039 1
v 2040 0
v 2041 1
v 2042 0
v 2043 1
v 2044 0
v 2045 1
v 2046 0
v 2047 1
v 2048 0
v 2049 1
v 2050 0
v 2051 1
v 2052 0
v 2053 1
v 2054 0
v 2055 1
v 2056 0
v 2057 1
v 2058 0
v 2059 1
v 2060 0
v 2061 1
v 2062 0
v 2063 1
v 2064 0
v 2065 1
v 2066 0
v 2067 1
v 2068 0
v 2069 1
v 2070 0
